12 66
1 2 2
1 3 5
1 4 4
1 5 4
1 6 4
1 7 5
1 8 5
1 9 5
1 10 4
1 11 5
1 12 4
2 3 5
2 4 4
2 5 5
2 6 4
2 7 1
2 8 4
2 9 5
2 10 5
2 11 3
2 12 2
3 4 5
3 5 5
3 6 4
3 7 5
3 8 5
3 9 4
3 10 4
3 11 3
3 12 3
4 5 5
4 6 1
4 7 3
4 8 4
4 9 5
4 10 1
4 11 2
4 12 3
5 6 1
5 7 2
5 8 1
5 9 1
5 10 4
5 11 2
5 12 1
6 7 3
6 8 3
6 9 2
6 10 3
6 11 4
6 12 5
7 8 4
7 9 4
7 10 2
7 11 1
7 12 5
8 9 5
8 10 4
8 11 1
8 12 3
9 10 4
9 11 1
9 12 3
10 11 2
10 12 3
11 12 5
